============================[ Problem Statistics ]=============================|                                                                             ||  Number of variables:          4242                                         ||  Number of clauses:           10156                                         ||  Parse time:                   0.55 s                                       ||                                                                             |============================[ Search Statistics ]==============================| Conflicts |          ORIGINAL         |          LEARNT          | Progress ||           |    Vars  Clauses Literals |    Limit  Clauses Lit/Cl |          |===============================================================================|       100 |    1591     6361   867752 |     2332      100     53 | 62.501 % ||       250 |    1591     6361   867752 |     2565      250     75 | 62.495 % |===============================================================================restarts              : 3conflicts             : 302            (363 /sec)decisions             : 568            (0.00 % random) (684 /sec)propagations          : 11858          (14270 /sec)conflict literals     : 23850          (94.73 % deleted)CPU time              : 0.831 sSATISFIABLE